Nb of jobs, Nb of Machines, Time seed, Machine seed, Upper bound, Lower bound
10,5,-1,-1,-1,-1
Times
28,70,79,1,57
14,93,42,73,54
73,41,3,75,60
25,90,94,28,28
57,89,98,83,15
94,57,29,73,93
89,10,69,54,41
43,50,28,69,73
68,43,32,9,61
88,7,41,78,47
Machines
3,2,5,1,4
2,5,4,3,1
1,4,2,3,5
2,5,1,3,4
3,2,1,4,5
3,5,1,4,2
2,1,5,4,3
2,5,3,4,1
2,3,1,5,4
3,1,4,2,5
